%chk=2-base2.chk
# opt freq=noraman hf/6-31G(d) geom=connectivity

Title Card Required

0 1
 C                 -2.11240326   -1.70542633    0.00000000
 C                 -1.43712895   -0.53044903    0.00000000
 C                  0.10287105   -0.53044903    0.00000000
 H                  0.63603479   -1.45815395    0.00000000
 C                  0.78511445    0.64049545    0.00000000
 H                  0.25747198    1.57135173    0.00000000
 H                  1.85509556    0.63413815    0.00000000
 Cl                -1.23542364   -3.23137087    0.00000000
 H                 -3.18240326   -1.70542633    0.00000000
 F                 -2.10981219    0.64001979    0.00000000

 1 2 2.0 8 1.0 9 1.0
 2 3 1.0 10 1.0
 3 4 1.0 5 2.0
 4
 5 6 1.0 7 1.0
 6
 7
 8
 9
 10

