%mem=32GB
%nproc=12
%chk=1-sddmp2.chk
# opt freq=noraman mp2/sdd geom=allcheck

Title Card Required

