%mem=32GB
%nproc=12
%chk=6-sdd.chk
# opt freq=noraman hf/sdd geom=allcheck

Title Card Required

